<number of tasks>
20


<number of equipment>
5


<cycle time>
1000


<investment costs>
1,12610
2,23128
3,6470
4,22162
5,19653


<task times>
1,184,-1,-1,141,152
2,-1,136,-1,163,-1
3,176,-1,-1,109,131
4,180,-1,-1,100,54
5,171,-1,171,-1,131
6,200,-1,231,-1,135
7,194,-1,-1,95,131
8,193,-1,-1,92,110
9,137,-1,171,-1,107
10,205,-1,260,-1,159
11,178,-1,187,-1,100
12,121,-1,118,-1,123
13,203,-1,245,-1,145
14,222,-1,257,-1,148
15,200,-1,229,-1,193
16,-1,71,-1,78,-1
17,194,-1,210,-1,138
18,216,-1,-1,185,216
19,-1,161,-1,163,-1
20,74,-1,-1,85,44


<precedence relations>
1,6
1,9
3,8
3,10
5,7
6,11
6,13
8,12
11,14
11,15
12,16
12,17
15,18
15,20
16,19


<task types>
1,2
2,1
3,2
4,2
5,3
6,3
7,2
8,2
9,3
10,3
11,3
12,3
13,3
14,3
15,3
16,1
17,3
18,2
19,1
20,2


<line depot>
1,0
2,1
3,2
4,2
5,2


<processing costs>
1,14400
2,7200
3,7200
4,14400
5,14400


<saving costs>
1,1261
2,2312
3,647
4,2216
5,1965


<end>
